p cnf 9 27
8 3 -3 0
8 1 7 0
9 -6 -1 7 0
8 1 -4 6 0
3 -5 5 0
-7 -4 -2 -1 0
-7 0
8 1 -6 -4 0
9 0
-8 -6 0
2 -9 5 7 0
6 0
-7 -6 -5 -2 0
-8 -9 0
6 0
1 -6 5 9 0
-2 -9 0
4 -4 -1 -9 0
9 -4 5 6 0
9 6 -9 0
2 -5 -1 0
-5 0
-7 -5 4 -9 0
-9 0
-4 5 -2 6 0
-4 -9 0
-7 -9 0
